g3 0 1 0	# problem d5n8R2R6d01d1
 8 7 1 0 2	# vars, constraints, objectives, ranges, eqns
 4 1	# nonlinear constraints, objectives
 0 0	# network constraints: nonlinear, linear
 8 8 8	# nonlinear vars in constraints, objectives, both
 0 0 0 1	# linear network variables; functions; arith, flags
 0 0 0 0 0	# discrete variables: binary, integer, nonlinear (b,c,o)
 56 8	# nonzeros in Jacobian, gradients
 0 0	# max name lengths: constraints, variables
 0 0 0 0 0	# common exprs: b,c,o,c1,o1
b
0 0.16 2.85
0 0.87 2.47
0 0.51 2.87
0 0.94 2.93
0 0.99 2.42
0 0.85 2.16
0 0.65 2.61
0 0.83 2.18
r
2 150.215
2 436.904
2 1993.79
2 4791.23
4 75.186
4 68.733
2 61.815
C0
o54
3
o2
o2
n9.5
v3
v3
o2
o2
n5.18
v4
v4
o2
o2
n5.34
v5
v5
C1
o54
18
o2
o2
n4.61
v3
v3
o2
o2
n7.32
v4
v4
o2
o2
n8.41
v5
v5
o2
o2
o2
n9.78
v0
v1
v1
o2
o2
o2
n7.47
v0
v1
v5
o16
o2
o2
o2
n9.81
v0
v2
v2
o2
o2
o2
n7.86
v0
v2
v3
o2
o2
o2
n1.51
v0
v2
v5
o16
o2
o2
o2
n2.37
v0
v2
v6
o2
o2
o2
n2.87
v1
v3
v4
o2
o2
o2
n8.12
v2
v2
v2
o2
o2
o2
n6.54
v2
v2
v6
o2
o2
o2
n6.67
v2
v3
v6
o2
o2
o2
n3.46
v3
v4
v7
o2
o2
o2
n8.2
v4
v4
v6
o2
o2
o2
n3.03
v4
v4
v7
o2
o2
o2
n6.4
v4
v5
v6
o2
o2
o2
n9.21
v6
v6
v6
C2
o54
52
o2
o2
n4.72
v3
v3
o2
o2
n4.22
v4
v4
o2
o2
n8.64
v5
v5
o2
o2
o2
n0.66
v0
v1
v1
o2
o2
o2
n5.99
v0
v1
v5
o2
o2
o2
n3.13
v0
v2
v2
o2
o2
o2
n5.45
v0
v2
v3
o2
o2
o2
n6.93
v0
v2
v5
o2
o2
o2
n9.54
v0
v2
v6
o2
o2
o2
n7.81
v1
v3
v4
o16
o2
o2
o2
n6.87
v2
v2
v2
o2
o2
o2
n4.48
v2
v2
v6
o2
o2
o2
n7.18
v2
v3
v6
o2
o2
o2
n6.62
v3
v4
v7
o2
o2
o2
n5.78
v4
v4
v6
o2
o2
o2
n7.36
v4
v4
v7
o2
o2
o2
n8.98
v4
v5
v6
o2
o2
o2
n4.52
v6
v6
v6
o2
o2
o2
o2
n6.98
v0
v0
v1
v6
o2
o2
o2
o2
n9.4
v0
v0
v3
v6
o2
o2
o2
o2
n5.92
v0
v0
v4
v5
o2
o2
o2
o2
n7.35
v0
v1
v1
v2
o2
o2
o2
o2
n5.5
v0
v1
v1
v5
o2
o2
o2
o2
n9.17
v0
v1
v4
v6
o2
o2
o2
o2
n3.86
v0
v2
v2
v7
o2
o2
o2
o2
n7.31
v0
v2
v3
v6
o2
o2
o2
o2
n6.19
v0
v2
v6
v7
o2
o2
o2
o2
n6.06
v0
v7
v7
v7
o2
o2
o2
o2
n8.73
v1
v1
v1
v6
o2
o2
o2
o2
n9.71
v1
v1
v2
v6
o2
o2
o2
o2
n4.56
v1
v1
v3
v4
o2
o2
o2
o2
n7.71
v1
v1
v3
v6
o2
o2
o2
o2
n2.97
v1
v1
v5
v7
o2
o2
o2
o2
n1.02
v1
v2
v2
v4
o2
o2
o2
o2
n8.78
v1
v2
v5
v6
o2
o2
o2
o2
n8.59
v1
v4
v4
v7
o2
o2
o2
o2
n3.25
v2
v2
v2
v4
o2
o2
o2
o2
n8.08
v2
v2
v3
v5
o2
o2
o2
o2
n3.1
v2
v2
v4
v6
o2
o2
o2
o2
n9.92
v2
v4
v5
v5
o2
o2
o2
o2
n9.36
v3
v3
v3
v3
o2
o2
o2
o2
n8.65
v3
v3
v4
v7
o2
o2
o2
o2
n2.33
v3
v4
v5
v6
o2
o2
o2
o2
n0.8
v3
v4
v7
v7
o2
o2
o2
o2
n4.49
v3
v5
v5
v6
o2
o2
o2
o2
n3.13
v3
v5
v6
v7
o2
o2
o2
o2
n7.71
v3
v6
v6
v6
o2
o2
o2
o2
n0.56
v4
v5
v5
v5
o2
o2
o2
o2
n6.57
v4
v5
v5
v7
o2
o2
o2
o2
n7.59
v4
v5
v7
v7
o2
o2
o2
o2
n3.97
v4
v6
v6
v6
o2
o2
o2
o2
n2.46
v5
v6
v7
v7
C3
o54
128
o2
o2
n1.45
v3
v3
o2
o2
n4.74
v4
v4
o2
o2
n1.04
v5
v5
o2
o2
o2
n2.89
v0
v1
v1
o2
o2
o2
n7.46
v0
v1
v5
o2
o2
o2
n8.44
v0
v2
v2
o2
o2
o2
n5.26
v0
v2
v3
o2
o2
o2
n0.56
v0
v2
v5
o2
o2
o2
n0.24
v0
v2
v6
o2
o2
o2
n0.23
v1
v3
v4
o2
o2
o2
n1.27
v2
v2
v2
o2
o2
o2
n9.51
v2
v2
v6
o2
o2
o2
n6.89
v2
v3
v6
o2
o2
o2
n3.34
v3
v4
v7
o2
o2
o2
n3.18
v4
v4
v6
o2
o2
o2
n2.59
v4
v4
v7
o2
o2
o2
n4.4
v4
v5
v6
o2
o2
o2
n2.72
v6
v6
v6
o2
o2
o2
o2
n3.11
v0
v0
v1
v6
o2
o2
o2
o2
n6.96
v0
v0
v3
v6
o16
o2
o2
o2
o2
n1.14
v0
v0
v4
v5
o2
o2
o2
o2
n8.05
v0
v1
v1
v2
o2
o2
o2
o2
n8.2
v0
v1
v1
v5
o2
o2
o2
o2
n7.75
v0
v1
v4
v6
o2
o2
o2
o2
n9.5
v0
v2
v2
v7
o2
o2
o2
o2
n7.99
v0
v2
v3
v6
o2
o2
o2
o2
n9
v0
v2
v6
v7
o2
o2
o2
o2
n2.91
v0
v7
v7
v7
o16
o2
o2
o2
o2
n9.91
v1
v1
v1
v6
o16
o2
o2
o2
o2
n5.69
v1
v1
v2
v6
o2
o2
o2
o2
n8.96
v1
v1
v3
v4
o2
o2
o2
o2
n9.36
v1
v1
v3
v6
o2
o2
o2
o2
n5.97
v1
v1
v5
v7
o2
o2
o2
o2
n5.56
v1
v2
v2
v4
o2
o2
o2
o2
n5.33
v1
v2
v5
v6
o2
o2
o2
o2
n0.37
v1
v4
v4
v7
o2
o2
o2
o2
n0.93
v2
v2
v2
v4
o2
o2
o2
o2
n1.26
v2
v2
v3
v5
o2
o2
o2
o2
n1.14
v2
v2
v4
v6
o2
o2
o2
o2
n4.19
v2
v4
v5
v5
o2
o2
o2
o2
n5.36
v3
v3
v3
v3
o2
o2
o2
o2
n4.97
v3
v3
v4
v7
o2
o2
o2
o2
n8.63
v3
v4
v5
v6
o2
o2
o2
o2
n3.93
v3
v4
v7
v7
o2
o2
o2
o2
n6.13
v3
v5
v5
v6
o2
o2
o2
o2
n7.91
v3
v5
v6
v7
o2
o2
o2
o2
n3.73
v3
v6
v6
v6
o2
o2
o2
o2
n8.71
v4
v5
v5
v5
o2
o2
o2
o2
n6.57
v4
v5
v5
v7
o2
o2
o2
o2
n2.05
v4
v5
v7
v7
o2
o2
o2
o2
n1.9
v4
v6
v6
v6
o2
o2
o2
o2
n6.02
v5
v6
v7
v7
o2
o2
o2
o2
o2
n7.95
v0
v0
v0
v3
v4
o2
o2
o2
o2
o2
n3.18
v0
v0
v0
v3
v5
o2
o2
o2
o2
o2
n5.25
v0
v0
v0
v3
v6
o2
o2
o2
o2
o2
n5.36
v0
v0
v0
v5
v7
o2
o2
o2
o2
o2
n2.13
v0
v0
v0
v7
v7
o2
o2
o2
o2
o2
n5.13
v0
v0
v1
v1
v3
o2
o2
o2
o2
o2
n0.79
v0
v0
v1
v1
v5
o2
o2
o2
o2
o2
n3.14
v0
v0
v1
v3
v5
o2
o2
o2
o2
o2
n5.56
v0
v0
v1
v6
v6
o2
o2
o2
o2
o2
n5.27
v0
v0
v4
v7
v7
o2
o2
o2
o2
o2
n0.04
v0
v0
v5
v5
v5
o2
o2
o2
o2
o2
n8.78
v0
v1
v1
v1
v1
o2
o2
o2
o2
o2
n4.43
v0
v1
v1
v7
v7
o2
o2
o2
o2
o2
n1.31
v0
v1
v2
v4
v7
o2
o2
o2
o2
o2
n9.86
v0
v1
v2
v6
v7
o2
o2
o2
o2
o2
n2.12
v0
v1
v3
v3
v7
o2
o2
o2
o2
o2
n1.14
v0
v1
v3
v5
v5
o2
o2
o2
o2
o2
n9.27
v0
v1
v6
v6
v7
o16
o2
o2
o2
o2
o2
n4.49
v0
v2
v3
v3
v3
o2
o2
o2
o2
o2
n2.06
v0
v2
v3
v3
v5
o2
o2
o2
o2
o2
n1.97
v0
v2
v3
v4
v6
o2
o2
o2
o2
o2
n2.73
v0
v3
v3
v7
v7
o2
o2
o2
o2
o2
n8.89
v0
v3
v4
v4
v5
o2
o2
o2
o2
o2
n6.4
v0
v3
v4
v6
v6
o2
o2
o2
o2
o2
n6.07
v0
v3
v5
v5
v7
o2
o2
o2
o2
o2
n3.39
v0
v6
v6
v6
v6
o16
o2
o2
o2
o2
o2
n3.29
v1
v1
v1
v1
v4
o2
o2
o2
o2
o2
n3.01
v1
v1
v2
v2
v3
o2
o2
o2
o2
o2
n5.61
v1
v1
v2
v7
v7
o2
o2
o2
o2
o2
n2.77
v1
v1
v3
v3
v4
o2
o2
o2
o2
o2
n9.04
v1
v1
v3
v5
v5
o16
o2
o2
o2
o2
o2
n2.21
v1
v1
v3
v6
v7
o2
o2
o2
o2
o2
n7.25
v1
v1
v4
v6
v7
o2
o2
o2
o2
o2
n5.27
v1
v1
v4
v7
v7
o2
o2
o2
o2
o2
n5.67
v1
v1
v5
v6
v7
o2
o2
o2
o2
o2
n0.39
v1
v2
v2
v3
v6
o2
o2
o2
o2
o2
n4.82
v1
v2
v3
v3
v5
o2
o2
o2
o2
o2
n2.36
v1
v2
v3
v4
v6
o2
o2
o2
o2
o2
n9.18
v1
v2
v3
v4
v7
o2
o2
o2
o2
o2
n4.9
v1
v2
v3
v5
v6
o2
o2
o2
o2
o2
n3.3
v1
v2
v3
v7
v7
o16
o2
o2
o2
o2
o2
n8.16
v1
v2
v4
v5
v6
o2
o2
o2
o2
o2
n1.67
v1
v2
v4
v5
v7
o2
o2
o2
o2
o2
n0.17
v1
v2
v5
v5
v6
o2
o2
o2
o2
o2
n3.96
v1
v2
v5
v7
v7
o2
o2
o2
o2
o2
n6.17
v1
v3
v3
v3
v3
o16
o2
o2
o2
o2
o2
n2.09
v1
v3
v3
v4
v4
o2
o2
o2
o2
o2
n5.12
v1
v3
v3
v4
v6
o2
o2
o2
o2
o2
n0.84
v1
v3
v5
v5
v7
o2
o2
o2
o2
o2
n7.25
v1
v3
v5
v7
v7
o2
o2
o2
o2
o2
n8.38
v1
v4
v4
v6
v7
o2
o2
o2
o2
o2
n1.77
v2
v2
v3
v4
v6
o2
o2
o2
o2
o2
n8.46
v2
v2
v3
v6
v6
o2
o2
o2
o2
o2
n8.91
v2
v2
v3
v7
v7
o2
o2
o2
o2
o2
n0.73
v2
v2
v4
v4
v5
o2
o2
o2
o2
o2
n5.13
v2
v2
v4
v7
v7
o2
o2
o2
o2
o2
n0.72
v2
v2
v6
v6
v7
o16
o2
o2
o2
o2
o2
n5.82
v2
v3
v5
v5
v7
o16
o2
o2
o2
o2
o2
n6.19
v2
v4
v5
v6
v6
o2
o2
o2
o2
o2
n4.33
v2
v4
v7
v7
v7
o2
o2
o2
o2
o2
n1.15
v3
v3
v3
v5
v6
o2
o2
o2
o2
o2
n1.55
v3
v3
v3
v7
v7
o2
o2
o2
o2
o2
n4.47
v3
v3
v6
v6
v6
o2
o2
o2
o2
o2
n5.01
v3
v5
v5
v5
v5
o2
o2
o2
o2
o2
n4.29
v3
v5
v5
v6
v7
o2
o2
o2
o2
o2
n1.59
v3
v6
v6
v6
v7
o2
o2
o2
o2
o2
n5.03
v4
v4
v4
v4
v6
o2
o2
o2
o2
o2
n2.94
v4
v4
v4
v6
v6
o2
o2
o2
o2
o2
n8.46
v4
v4
v5
v5
v5
o2
o2
o2
o2
o2
n7.59
v4
v4
v5
v7
v7
o2
o2
o2
o2
o2
n5.39
v4
v5
v5
v7
v7
o2
o2
o2
o2
o2
n8.91
v4
v5
v6
v6
v6
o2
o2
o2
o2
o2
n9.63
v4
v6
v6
v7
v7
o2
o2
o2
o2
o2
n2.9
v5
v5
v6
v6
v6
o2
o2
o2
o2
o2
n0.66
v5
v5
v6
v6
v7
o2
o2
o2
o2
o2
n4.89
v5
v5
v7
v7
v7
C4
n0
C5
n0
C6
n0
O0 0
o54
128
o2
o2
n0.1
v3
v3
o2
o2
n1.93
v4
v4
o2
o2
n7.45
v5
v5
o2
o2
o2
n0.41
v0
v1
v1
o16
o2
o2
o2
n4.09
v0
v1
v5
o2
o2
o2
n5.39
v0
v2
v2
o2
o2
o2
n5.99
v0
v2
v3
o2
o2
o2
n0.15
v0
v2
v5
o16
o2
o2
o2
n0.06
v0
v2
v6
o16
o2
o2
o2
n2.61
v1
v3
v4
o2
o2
o2
n6.78
v2
v2
v2
o2
o2
o2
n0.59
v2
v2
v6
o2
o2
o2
n0.48
v2
v3
v6
o2
o2
o2
n7.67
v3
v4
v7
o2
o2
o2
n4.13
v4
v4
v6
o2
o2
o2
n8.5
v4
v4
v7
o2
o2
o2
n0.08
v4
v5
v6
o2
o2
o2
n7.82
v6
v6
v6
o2
o2
o2
o2
n3.29
v0
v0
v1
v6
o2
o2
o2
o2
n2.05
v0
v0
v3
v6
o2
o2
o2
o2
n8.63
v0
v0
v4
v5
o2
o2
o2
o2
n7.72
v0
v1
v1
v2
o2
o2
o2
o2
n8.86
v0
v1
v1
v5
o2
o2
o2
o2
n5.65
v0
v1
v4
v6
o2
o2
o2
o2
n4.8
v0
v2
v2
v7
o2
o2
o2
o2
n4.98
v0
v2
v3
v6
o2
o2
o2
o2
n4.28
v0
v2
v6
v7
o2
o2
o2
o2
n6.15
v0
v7
v7
v7
o2
o2
o2
o2
n1.41
v1
v1
v1
v6
o2
o2
o2
o2
n6.88
v1
v1
v2
v6
o16
o2
o2
o2
o2
n2.72
v1
v1
v3
v4
o2
o2
o2
o2
n0.16
v1
v1
v3
v6
o2
o2
o2
o2
n1.84
v1
v1
v5
v7
o2
o2
o2
o2
n8.4
v1
v2
v2
v4
o2
o2
o2
o2
n9.11
v1
v2
v5
v6
o2
o2
o2
o2
n2.72
v1
v4
v4
v7
o2
o2
o2
o2
n7.78
v2
v2
v2
v4
o2
o2
o2
o2
n1.48
v2
v2
v3
v5
o2
o2
o2
o2
n3.45
v2
v2
v4
v6
o2
o2
o2
o2
n7.16
v2
v4
v5
v5
o2
o2
o2
o2
n8.09
v3
v3
v3
v3
o2
o2
o2
o2
n5.52
v3
v3
v4
v7
o2
o2
o2
o2
n5.42
v3
v4
v5
v6
o2
o2
o2
o2
n6.26
v3
v4
v7
v7
o2
o2
o2
o2
n9.08
v3
v5
v5
v6
o2
o2
o2
o2
n9.14
v3
v5
v6
v7
o2
o2
o2
o2
n0.18
v3
v6
v6
v6
o2
o2
o2
o2
n4.62
v4
v5
v5
v5
o2
o2
o2
o2
n5.89
v4
v5
v5
v7
o2
o2
o2
o2
n3.18
v4
v5
v7
v7
o2
o2
o2
o2
n5.44
v4
v6
v6
v6
o2
o2
o2
o2
n2.27
v5
v6
v7
v7
o16
o2
o2
o2
o2
o2
n5.25
v0
v0
v0
v3
v4
o16
o2
o2
o2
o2
o2
n4.99
v0
v0
v0
v3
v5
o2
o2
o2
o2
o2
n9.75
v0
v0
v0
v3
v6
o2
o2
o2
o2
o2
n9.6
v0
v0
v0
v5
v7
o2
o2
o2
o2
o2
n9.35
v0
v0
v0
v7
v7
o2
o2
o2
o2
o2
n3.88
v0
v0
v1
v1
v3
o2
o2
o2
o2
o2
n2.15
v0
v0
v1
v1
v5
o2
o2
o2
o2
o2
n3.43
v0
v0
v1
v3
v5
o2
o2
o2
o2
o2
n1.1
v0
v0
v1
v6
v6
o2
o2
o2
o2
o2
n7.93
v0
v0
v4
v7
v7
o2
o2
o2
o2
o2
n2.91
v0
v0
v5
v5
v5
o2
o2
o2
o2
o2
n4.47
v0
v1
v1
v1
v1
o2
o2
o2
o2
o2
n0.54
v0
v1
v1
v7
v7
o2
o2
o2
o2
o2
n1.99
v0
v1
v2
v4
v7
o2
o2
o2
o2
o2
n5.63
v0
v1
v2
v6
v7
o2
o2
o2
o2
o2
n5.89
v0
v1
v3
v3
v7
o2
o2
o2
o2
o2
n2.55
v0
v1
v3
v5
v5
o2
o2
o2
o2
o2
n6.89
v0
v1
v6
v6
v7
o2
o2
o2
o2
o2
n0.58
v0
v2
v3
v3
v3
o2
o2
o2
o2
o2
n3.21
v0
v2
v3
v3
v5
o2
o2
o2
o2
o2
n5.79
v0
v2
v3
v4
v6
o2
o2
o2
o2
o2
n0.03
v0
v3
v3
v7
v7
o2
o2
o2
o2
o2
n9.23
v0
v3
v4
v4
v5
o2
o2
o2
o2
o2
n5.48
v0
v3
v4
v6
v6
o2
o2
o2
o2
o2
n2.89
v0
v3
v5
v5
v7
o2
o2
o2
o2
o2
n7.06
v0
v6
v6
v6
v6
o2
o2
o2
o2
o2
n0.11
v1
v1
v1
v1
v4
o2
o2
o2
o2
o2
n7.62
v1
v1
v2
v2
v3
o2
o2
o2
o2
o2
n1.91
v1
v1
v2
v7
v7
o2
o2
o2
o2
o2
n4.94
v1
v1
v3
v3
v4
o2
o2
o2
o2
o2
n5.86
v1
v1
v3
v5
v5
o16
o2
o2
o2
o2
o2
n4.04
v1
v1
v3
v6
v7
o2
o2
o2
o2
o2
n9.02
v1
v1
v4
v6
v7
o2
o2
o2
o2
o2
n6.15
v1
v1
v4
v7
v7
o2
o2
o2
o2
o2
n1.54
v1
v1
v5
v6
v7
o2
o2
o2
o2
o2
n3.57
v1
v2
v2
v3
v6
o2
o2
o2
o2
o2
n2.45
v1
v2
v3
v3
v5
o2
o2
o2
o2
o2
n4.27
v1
v2
v3
v4
v6
o2
o2
o2
o2
o2
n4.23
v1
v2
v3
v4
v7
o2
o2
o2
o2
o2
n5.56
v1
v2
v3
v5
v6
o2
o2
o2
o2
o2
n7.69
v1
v2
v3
v7
v7
o2
o2
o2
o2
o2
n0.65
v1
v2
v4
v5
v6
o2
o2
o2
o2
o2
n3.81
v1
v2
v4
v5
v7
o2
o2
o2
o2
o2
n7.27
v1
v2
v5
v5
v6
o2
o2
o2
o2
o2
n3.94
v1
v2
v5
v7
v7
o2
o2
o2
o2
o2
n2.48
v1
v3
v3
v3
v3
o2
o2
o2
o2
o2
n5.09
v1
v3
v3
v4
v4
o2
o2
o2
o2
o2
n2.52
v1
v3
v3
v4
v6
o2
o2
o2
o2
o2
n1.79
v1
v3
v5
v5
v7
o16
o2
o2
o2
o2
o2
n2.04
v1
v3
v5
v7
v7
o2
o2
o2
o2
o2
n1.07
v1
v4
v4
v6
v7
o16
o2
o2
o2
o2
o2
n1.53
v2
v2
v3
v4
v6
o2
o2
o2
o2
o2
n2.17
v2
v2
v3
v6
v6
o2
o2
o2
o2
o2
n7.18
v2
v2
v3
v7
v7
o2
o2
o2
o2
o2
n7.52
v2
v2
v4
v4
v5
o2
o2
o2
o2
o2
n2.1
v2
v2
v4
v7
v7
o2
o2
o2
o2
o2
n6.55
v2
v2
v6
v6
v7
o2
o2
o2
o2
o2
n3.1
v2
v3
v5
v5
v7
o2
o2
o2
o2
o2
n8.85
v2
v4
v5
v6
v6
o2
o2
o2
o2
o2
n1.97
v2
v4
v7
v7
v7
o2
o2
o2
o2
o2
n8.39
v3
v3
v3
v5
v6
o2
o2
o2
o2
o2
n5.37
v3
v3
v3
v7
v7
o2
o2
o2
o2
o2
n5.13
v3
v3
v6
v6
v6
o2
o2
o2
o2
o2
n2.44
v3
v5
v5
v5
v5
o2
o2
o2
o2
o2
n5.82
v3
v5
v5
v6
v7
o2
o2
o2
o2
o2
n4.13
v3
v6
v6
v6
v7
o2
o2
o2
o2
o2
n0.4
v4
v4
v4
v4
v6
o2
o2
o2
o2
o2
n3.29
v4
v4
v4
v6
v6
o2
o2
o2
o2
o2
n5.6
v4
v4
v5
v5
v5
o2
o2
o2
o2
o2
n9.68
v4
v4
v5
v7
v7
o2
o2
o2
o2
o2
n2.32
v4
v5
v5
v7
v7
o2
o2
o2
o2
o2
n8.88
v4
v5
v6
v6
v6
o16
o2
o2
o2
o2
o2
n8.32
v4
v6
v6
v7
v7
o2
o2
o2
o2
o2
n9.18
v5
v5
v6
v6
v6
o2
o2
o2
o2
o2
n2.88
v5
v5
v6
v6
v7
o2
o2
o2
o2
o2
n5.54
v5
v5
v7
v7
v7
k7
7
14
21
28
35
42
49
J0 8
0 4.56
1 7.03
2 7.16
3 9.14
4 7.89
5 3.1
6 4.73
7 8.82
J1 8
0 0.25
1 1.36
2 4.94
3 8.25
4 6.77
5 4.19
6 5.1
7 4.96
J2 8
0 5.44
1 6.43
2 5.86
3 4.49
4 0.68
5 6.3
6 8.44
7 7.86
J3 8
0 1.06
1 8.03
2 7.63
3 8.49
4 4.85
5 5.88
6 -6.62
7 5.57
J4 8
0 4.04
1 9.18
2 0.52
3 0.56
4 8.66
5 9.92
6 9.95
7 3.92
J5 8
0 8.33
1 3.31
2 5.24
3 5.11
4 3.21
5 2.54
6 9.83
7 4.39
J6 8
0 7.92
1 6.91
2 1.17
3 7.54
4 -7.62
5 8.74
6 6.38
7 7.46
G0 8
0 2.3
1 9.04
2 3.79
3 2.37
4 6.49
5 8.33
6 0.81
7 2.37
